NAME: CMT12_2
TYPE: CVRP
COMMENT: 819.56 - Cluster Nr.2
DIMENSION: 18
CAPACITY: 200
EDGE_WEIGHT_TYPE: EUC_2D
NODE_COORD_TYPE: TWOD_COORDS
NODE_COORD_SECTION: 
8 26 32
6 30 32
11 45 30
5 28 30
4 33 35
10 25 30
3 30 30
15 48 30
16 47 35
14 33 32
7 40 50
18 35 32
2 45 35
12 35 30
13 32 30
1 30 35
9 25 35
17 28 35
DEPOT_SECTION: 
7
-1
DEMAND_SECTION: 
9 10
15 10
5 10
16 10
11 10
7 0
17 10
13 10
6 30
12 10
18 10
8 10
3 10
14 20
1 10
4 10
10 10
2 10
EOF
